c *********************************
c * Circuit generated by BenCGen
c *
c * RippleCarryAdderSubtractor_51_51_51_OutSunT
c *
c * Ports with 1 gate(s): 2
c * Ports with 2 gate(s): 308
c * Total gates: 310
c *********************************
p cnf 412 1082
1 156 0
-1 -156 0
1 -155 0
156 -155 0
-1 -156 155 0
155 157 0
-155 -157 0
52 155 -158 0
-52 155 158 0
52 -155 158 0
-52 -155 -158 0
53 155 -159 0
-53 155 159 0
53 -155 159 0
-53 -155 -159 0
54 155 -160 0
-54 155 160 0
54 -155 160 0
-54 -155 -160 0
55 155 -161 0
-55 155 161 0
55 -155 161 0
-55 -155 -161 0
56 155 -162 0
-56 155 162 0
56 -155 162 0
-56 -155 -162 0
57 155 -163 0
-57 155 163 0
57 -155 163 0
-57 -155 -163 0
58 155 -164 0
-58 155 164 0
58 -155 164 0
-58 -155 -164 0
59 155 -165 0
-59 155 165 0
59 -155 165 0
-59 -155 -165 0
60 155 -166 0
-60 155 166 0
60 -155 166 0
-60 -155 -166 0
61 155 -167 0
-61 155 167 0
61 -155 167 0
-61 -155 -167 0
62 155 -168 0
-62 155 168 0
62 -155 168 0
-62 -155 -168 0
63 155 -169 0
-63 155 169 0
63 -155 169 0
-63 -155 -169 0
64 155 -170 0
-64 155 170 0
64 -155 170 0
-64 -155 -170 0
65 155 -171 0
-65 155 171 0
65 -155 171 0
-65 -155 -171 0
66 155 -172 0
-66 155 172 0
66 -155 172 0
-66 -155 -172 0
67 155 -173 0
-67 155 173 0
67 -155 173 0
-67 -155 -173 0
68 155 -174 0
-68 155 174 0
68 -155 174 0
-68 -155 -174 0
69 155 -175 0
-69 155 175 0
69 -155 175 0
-69 -155 -175 0
70 155 -176 0
-70 155 176 0
70 -155 176 0
-70 -155 -176 0
71 155 -177 0
-71 155 177 0
71 -155 177 0
-71 -155 -177 0
72 155 -178 0
-72 155 178 0
72 -155 178 0
-72 -155 -178 0
73 155 -179 0
-73 155 179 0
73 -155 179 0
-73 -155 -179 0
74 155 -180 0
-74 155 180 0
74 -155 180 0
-74 -155 -180 0
75 155 -181 0
-75 155 181 0
75 -155 181 0
-75 -155 -181 0
76 155 -182 0
-76 155 182 0
76 -155 182 0
-76 -155 -182 0
77 155 -183 0
-77 155 183 0
77 -155 183 0
-77 -155 -183 0
78 155 -184 0
-78 155 184 0
78 -155 184 0
-78 -155 -184 0
79 155 -185 0
-79 155 185 0
79 -155 185 0
-79 -155 -185 0
80 155 -186 0
-80 155 186 0
80 -155 186 0
-80 -155 -186 0
81 155 -187 0
-81 155 187 0
81 -155 187 0
-81 -155 -187 0
82 155 -188 0
-82 155 188 0
82 -155 188 0
-82 -155 -188 0
83 155 -189 0
-83 155 189 0
83 -155 189 0
-83 -155 -189 0
84 155 -190 0
-84 155 190 0
84 -155 190 0
-84 -155 -190 0
85 155 -191 0
-85 155 191 0
85 -155 191 0
-85 -155 -191 0
86 155 -192 0
-86 155 192 0
86 -155 192 0
-86 -155 -192 0
87 155 -193 0
-87 155 193 0
87 -155 193 0
-87 -155 -193 0
88 155 -194 0
-88 155 194 0
88 -155 194 0
-88 -155 -194 0
89 155 -195 0
-89 155 195 0
89 -155 195 0
-89 -155 -195 0
90 155 -196 0
-90 155 196 0
90 -155 196 0
-90 -155 -196 0
91 155 -197 0
-91 155 197 0
91 -155 197 0
-91 -155 -197 0
92 155 -198 0
-92 155 198 0
92 -155 198 0
-92 -155 -198 0
93 155 -199 0
-93 155 199 0
93 -155 199 0
-93 -155 -199 0
94 155 -200 0
-94 155 200 0
94 -155 200 0
-94 -155 -200 0
95 155 -201 0
-95 155 201 0
95 -155 201 0
-95 -155 -201 0
96 155 -202 0
-96 155 202 0
96 -155 202 0
-96 -155 -202 0
97 155 -203 0
-97 155 203 0
97 -155 203 0
-97 -155 -203 0
98 155 -204 0
-98 155 204 0
98 -155 204 0
-98 -155 -204 0
99 155 -205 0
-99 155 205 0
99 -155 205 0
-99 -155 -205 0
100 155 -206 0
-100 155 206 0
100 -155 206 0
-100 -155 -206 0
101 155 -207 0
-101 155 207 0
101 -155 207 0
-101 -155 -207 0
102 155 -208 0
-102 155 208 0
102 -155 208 0
-102 -155 -208 0
1 158 -210 0
-1 158 210 0
1 -158 210 0
-1 -158 -210 0
210 155 -103 0
-210 155 103 0
210 -155 103 0
-210 -155 -103 0
155 -211 0
210 -211 0
-155 -210 211 0
158 -212 0
1 -212 0
-158 -1 212 0
-211 209 0
-212 209 0
211 212 -209 0
2 159 -214 0
-2 159 214 0
2 -159 214 0
-2 -159 -214 0
214 209 -104 0
-214 209 104 0
214 -209 104 0
-214 -209 -104 0
209 -215 0
214 -215 0
-209 -214 215 0
159 -216 0
2 -216 0
-159 -2 216 0
-215 213 0
-216 213 0
215 216 -213 0
3 160 -218 0
-3 160 218 0
3 -160 218 0
-3 -160 -218 0
218 213 -105 0
-218 213 105 0
218 -213 105 0
-218 -213 -105 0
213 -219 0
218 -219 0
-213 -218 219 0
160 -220 0
3 -220 0
-160 -3 220 0
-219 217 0
-220 217 0
219 220 -217 0
4 161 -222 0
-4 161 222 0
4 -161 222 0
-4 -161 -222 0
222 217 -106 0
-222 217 106 0
222 -217 106 0
-222 -217 -106 0
217 -223 0
222 -223 0
-217 -222 223 0
161 -224 0
4 -224 0
-161 -4 224 0
-223 221 0
-224 221 0
223 224 -221 0
5 162 -226 0
-5 162 226 0
5 -162 226 0
-5 -162 -226 0
226 221 -107 0
-226 221 107 0
226 -221 107 0
-226 -221 -107 0
221 -227 0
226 -227 0
-221 -226 227 0
162 -228 0
5 -228 0
-162 -5 228 0
-227 225 0
-228 225 0
227 228 -225 0
6 163 -230 0
-6 163 230 0
6 -163 230 0
-6 -163 -230 0
230 225 -108 0
-230 225 108 0
230 -225 108 0
-230 -225 -108 0
225 -231 0
230 -231 0
-225 -230 231 0
163 -232 0
6 -232 0
-163 -6 232 0
-231 229 0
-232 229 0
231 232 -229 0
7 164 -234 0
-7 164 234 0
7 -164 234 0
-7 -164 -234 0
234 229 -109 0
-234 229 109 0
234 -229 109 0
-234 -229 -109 0
229 -235 0
234 -235 0
-229 -234 235 0
164 -236 0
7 -236 0
-164 -7 236 0
-235 233 0
-236 233 0
235 236 -233 0
8 165 -238 0
-8 165 238 0
8 -165 238 0
-8 -165 -238 0
238 233 -110 0
-238 233 110 0
238 -233 110 0
-238 -233 -110 0
233 -239 0
238 -239 0
-233 -238 239 0
165 -240 0
8 -240 0
-165 -8 240 0
-239 237 0
-240 237 0
239 240 -237 0
9 166 -242 0
-9 166 242 0
9 -166 242 0
-9 -166 -242 0
242 237 -111 0
-242 237 111 0
242 -237 111 0
-242 -237 -111 0
237 -243 0
242 -243 0
-237 -242 243 0
166 -244 0
9 -244 0
-166 -9 244 0
-243 241 0
-244 241 0
243 244 -241 0
10 167 -246 0
-10 167 246 0
10 -167 246 0
-10 -167 -246 0
246 241 -112 0
-246 241 112 0
246 -241 112 0
-246 -241 -112 0
241 -247 0
246 -247 0
-241 -246 247 0
167 -248 0
10 -248 0
-167 -10 248 0
-247 245 0
-248 245 0
247 248 -245 0
11 168 -250 0
-11 168 250 0
11 -168 250 0
-11 -168 -250 0
250 245 -113 0
-250 245 113 0
250 -245 113 0
-250 -245 -113 0
245 -251 0
250 -251 0
-245 -250 251 0
168 -252 0
11 -252 0
-168 -11 252 0
-251 249 0
-252 249 0
251 252 -249 0
12 169 -254 0
-12 169 254 0
12 -169 254 0
-12 -169 -254 0
254 249 -114 0
-254 249 114 0
254 -249 114 0
-254 -249 -114 0
249 -255 0
254 -255 0
-249 -254 255 0
169 -256 0
12 -256 0
-169 -12 256 0
-255 253 0
-256 253 0
255 256 -253 0
13 170 -258 0
-13 170 258 0
13 -170 258 0
-13 -170 -258 0
258 253 -115 0
-258 253 115 0
258 -253 115 0
-258 -253 -115 0
253 -259 0
258 -259 0
-253 -258 259 0
170 -260 0
13 -260 0
-170 -13 260 0
-259 257 0
-260 257 0
259 260 -257 0
14 171 -262 0
-14 171 262 0
14 -171 262 0
-14 -171 -262 0
262 257 -116 0
-262 257 116 0
262 -257 116 0
-262 -257 -116 0
257 -263 0
262 -263 0
-257 -262 263 0
171 -264 0
14 -264 0
-171 -14 264 0
-263 261 0
-264 261 0
263 264 -261 0
15 172 -266 0
-15 172 266 0
15 -172 266 0
-15 -172 -266 0
266 261 -117 0
-266 261 117 0
266 -261 117 0
-266 -261 -117 0
261 -267 0
266 -267 0
-261 -266 267 0
172 -268 0
15 -268 0
-172 -15 268 0
-267 265 0
-268 265 0
267 268 -265 0
16 173 -270 0
-16 173 270 0
16 -173 270 0
-16 -173 -270 0
270 265 -118 0
-270 265 118 0
270 -265 118 0
-270 -265 -118 0
265 -271 0
270 -271 0
-265 -270 271 0
173 -272 0
16 -272 0
-173 -16 272 0
-271 269 0
-272 269 0
271 272 -269 0
17 174 -274 0
-17 174 274 0
17 -174 274 0
-17 -174 -274 0
274 269 -119 0
-274 269 119 0
274 -269 119 0
-274 -269 -119 0
269 -275 0
274 -275 0
-269 -274 275 0
174 -276 0
17 -276 0
-174 -17 276 0
-275 273 0
-276 273 0
275 276 -273 0
18 175 -278 0
-18 175 278 0
18 -175 278 0
-18 -175 -278 0
278 273 -120 0
-278 273 120 0
278 -273 120 0
-278 -273 -120 0
273 -279 0
278 -279 0
-273 -278 279 0
175 -280 0
18 -280 0
-175 -18 280 0
-279 277 0
-280 277 0
279 280 -277 0
19 176 -282 0
-19 176 282 0
19 -176 282 0
-19 -176 -282 0
282 277 -121 0
-282 277 121 0
282 -277 121 0
-282 -277 -121 0
277 -283 0
282 -283 0
-277 -282 283 0
176 -284 0
19 -284 0
-176 -19 284 0
-283 281 0
-284 281 0
283 284 -281 0
20 177 -286 0
-20 177 286 0
20 -177 286 0
-20 -177 -286 0
286 281 -122 0
-286 281 122 0
286 -281 122 0
-286 -281 -122 0
281 -287 0
286 -287 0
-281 -286 287 0
177 -288 0
20 -288 0
-177 -20 288 0
-287 285 0
-288 285 0
287 288 -285 0
21 178 -290 0
-21 178 290 0
21 -178 290 0
-21 -178 -290 0
290 285 -123 0
-290 285 123 0
290 -285 123 0
-290 -285 -123 0
285 -291 0
290 -291 0
-285 -290 291 0
178 -292 0
21 -292 0
-178 -21 292 0
-291 289 0
-292 289 0
291 292 -289 0
22 179 -294 0
-22 179 294 0
22 -179 294 0
-22 -179 -294 0
294 289 -124 0
-294 289 124 0
294 -289 124 0
-294 -289 -124 0
289 -295 0
294 -295 0
-289 -294 295 0
179 -296 0
22 -296 0
-179 -22 296 0
-295 293 0
-296 293 0
295 296 -293 0
23 180 -298 0
-23 180 298 0
23 -180 298 0
-23 -180 -298 0
298 293 -125 0
-298 293 125 0
298 -293 125 0
-298 -293 -125 0
293 -299 0
298 -299 0
-293 -298 299 0
180 -300 0
23 -300 0
-180 -23 300 0
-299 297 0
-300 297 0
299 300 -297 0
24 181 -302 0
-24 181 302 0
24 -181 302 0
-24 -181 -302 0
302 297 -126 0
-302 297 126 0
302 -297 126 0
-302 -297 -126 0
297 -303 0
302 -303 0
-297 -302 303 0
181 -304 0
24 -304 0
-181 -24 304 0
-303 301 0
-304 301 0
303 304 -301 0
25 182 -306 0
-25 182 306 0
25 -182 306 0
-25 -182 -306 0
306 301 -127 0
-306 301 127 0
306 -301 127 0
-306 -301 -127 0
301 -307 0
306 -307 0
-301 -306 307 0
182 -308 0
25 -308 0
-182 -25 308 0
-307 305 0
-308 305 0
307 308 -305 0
26 183 -310 0
-26 183 310 0
26 -183 310 0
-26 -183 -310 0
310 305 -128 0
-310 305 128 0
310 -305 128 0
-310 -305 -128 0
305 -311 0
310 -311 0
-305 -310 311 0
183 -312 0
26 -312 0
-183 -26 312 0
-311 309 0
-312 309 0
311 312 -309 0
27 184 -314 0
-27 184 314 0
27 -184 314 0
-27 -184 -314 0
314 309 -129 0
-314 309 129 0
314 -309 129 0
-314 -309 -129 0
309 -315 0
314 -315 0
-309 -314 315 0
184 -316 0
27 -316 0
-184 -27 316 0
-315 313 0
-316 313 0
315 316 -313 0
28 185 -318 0
-28 185 318 0
28 -185 318 0
-28 -185 -318 0
318 313 -130 0
-318 313 130 0
318 -313 130 0
-318 -313 -130 0
313 -319 0
318 -319 0
-313 -318 319 0
185 -320 0
28 -320 0
-185 -28 320 0
-319 317 0
-320 317 0
319 320 -317 0
29 186 -322 0
-29 186 322 0
29 -186 322 0
-29 -186 -322 0
322 317 -131 0
-322 317 131 0
322 -317 131 0
-322 -317 -131 0
317 -323 0
322 -323 0
-317 -322 323 0
186 -324 0
29 -324 0
-186 -29 324 0
-323 321 0
-324 321 0
323 324 -321 0
30 187 -326 0
-30 187 326 0
30 -187 326 0
-30 -187 -326 0
326 321 -132 0
-326 321 132 0
326 -321 132 0
-326 -321 -132 0
321 -327 0
326 -327 0
-321 -326 327 0
187 -328 0
30 -328 0
-187 -30 328 0
-327 325 0
-328 325 0
327 328 -325 0
31 188 -330 0
-31 188 330 0
31 -188 330 0
-31 -188 -330 0
330 325 -133 0
-330 325 133 0
330 -325 133 0
-330 -325 -133 0
325 -331 0
330 -331 0
-325 -330 331 0
188 -332 0
31 -332 0
-188 -31 332 0
-331 329 0
-332 329 0
331 332 -329 0
32 189 -334 0
-32 189 334 0
32 -189 334 0
-32 -189 -334 0
334 329 -134 0
-334 329 134 0
334 -329 134 0
-334 -329 -134 0
329 -335 0
334 -335 0
-329 -334 335 0
189 -336 0
32 -336 0
-189 -32 336 0
-335 333 0
-336 333 0
335 336 -333 0
33 190 -338 0
-33 190 338 0
33 -190 338 0
-33 -190 -338 0
338 333 -135 0
-338 333 135 0
338 -333 135 0
-338 -333 -135 0
333 -339 0
338 -339 0
-333 -338 339 0
190 -340 0
33 -340 0
-190 -33 340 0
-339 337 0
-340 337 0
339 340 -337 0
34 191 -342 0
-34 191 342 0
34 -191 342 0
-34 -191 -342 0
342 337 -136 0
-342 337 136 0
342 -337 136 0
-342 -337 -136 0
337 -343 0
342 -343 0
-337 -342 343 0
191 -344 0
34 -344 0
-191 -34 344 0
-343 341 0
-344 341 0
343 344 -341 0
35 192 -346 0
-35 192 346 0
35 -192 346 0
-35 -192 -346 0
346 341 -137 0
-346 341 137 0
346 -341 137 0
-346 -341 -137 0
341 -347 0
346 -347 0
-341 -346 347 0
192 -348 0
35 -348 0
-192 -35 348 0
-347 345 0
-348 345 0
347 348 -345 0
36 193 -350 0
-36 193 350 0
36 -193 350 0
-36 -193 -350 0
350 345 -138 0
-350 345 138 0
350 -345 138 0
-350 -345 -138 0
345 -351 0
350 -351 0
-345 -350 351 0
193 -352 0
36 -352 0
-193 -36 352 0
-351 349 0
-352 349 0
351 352 -349 0
37 194 -354 0
-37 194 354 0
37 -194 354 0
-37 -194 -354 0
354 349 -139 0
-354 349 139 0
354 -349 139 0
-354 -349 -139 0
349 -355 0
354 -355 0
-349 -354 355 0
194 -356 0
37 -356 0
-194 -37 356 0
-355 353 0
-356 353 0
355 356 -353 0
38 195 -358 0
-38 195 358 0
38 -195 358 0
-38 -195 -358 0
358 353 -140 0
-358 353 140 0
358 -353 140 0
-358 -353 -140 0
353 -359 0
358 -359 0
-353 -358 359 0
195 -360 0
38 -360 0
-195 -38 360 0
-359 357 0
-360 357 0
359 360 -357 0
39 196 -362 0
-39 196 362 0
39 -196 362 0
-39 -196 -362 0
362 357 -141 0
-362 357 141 0
362 -357 141 0
-362 -357 -141 0
357 -363 0
362 -363 0
-357 -362 363 0
196 -364 0
39 -364 0
-196 -39 364 0
-363 361 0
-364 361 0
363 364 -361 0
40 197 -366 0
-40 197 366 0
40 -197 366 0
-40 -197 -366 0
366 361 -142 0
-366 361 142 0
366 -361 142 0
-366 -361 -142 0
361 -367 0
366 -367 0
-361 -366 367 0
197 -368 0
40 -368 0
-197 -40 368 0
-367 365 0
-368 365 0
367 368 -365 0
41 198 -370 0
-41 198 370 0
41 -198 370 0
-41 -198 -370 0
370 365 -143 0
-370 365 143 0
370 -365 143 0
-370 -365 -143 0
365 -371 0
370 -371 0
-365 -370 371 0
198 -372 0
41 -372 0
-198 -41 372 0
-371 369 0
-372 369 0
371 372 -369 0
42 199 -374 0
-42 199 374 0
42 -199 374 0
-42 -199 -374 0
374 369 -144 0
-374 369 144 0
374 -369 144 0
-374 -369 -144 0
369 -375 0
374 -375 0
-369 -374 375 0
199 -376 0
42 -376 0
-199 -42 376 0
-375 373 0
-376 373 0
375 376 -373 0
43 200 -378 0
-43 200 378 0
43 -200 378 0
-43 -200 -378 0
378 373 -145 0
-378 373 145 0
378 -373 145 0
-378 -373 -145 0
373 -379 0
378 -379 0
-373 -378 379 0
200 -380 0
43 -380 0
-200 -43 380 0
-379 377 0
-380 377 0
379 380 -377 0
44 201 -382 0
-44 201 382 0
44 -201 382 0
-44 -201 -382 0
382 377 -146 0
-382 377 146 0
382 -377 146 0
-382 -377 -146 0
377 -383 0
382 -383 0
-377 -382 383 0
201 -384 0
44 -384 0
-201 -44 384 0
-383 381 0
-384 381 0
383 384 -381 0
45 202 -386 0
-45 202 386 0
45 -202 386 0
-45 -202 -386 0
386 381 -147 0
-386 381 147 0
386 -381 147 0
-386 -381 -147 0
381 -387 0
386 -387 0
-381 -386 387 0
202 -388 0
45 -388 0
-202 -45 388 0
-387 385 0
-388 385 0
387 388 -385 0
46 203 -390 0
-46 203 390 0
46 -203 390 0
-46 -203 -390 0
390 385 -148 0
-390 385 148 0
390 -385 148 0
-390 -385 -148 0
385 -391 0
390 -391 0
-385 -390 391 0
203 -392 0
46 -392 0
-203 -46 392 0
-391 389 0
-392 389 0
391 392 -389 0
47 204 -394 0
-47 204 394 0
47 -204 394 0
-47 -204 -394 0
394 389 -149 0
-394 389 149 0
394 -389 149 0
-394 -389 -149 0
389 -395 0
394 -395 0
-389 -394 395 0
204 -396 0
47 -396 0
-204 -47 396 0
-395 393 0
-396 393 0
395 396 -393 0
48 205 -398 0
-48 205 398 0
48 -205 398 0
-48 -205 -398 0
398 393 -150 0
-398 393 150 0
398 -393 150 0
-398 -393 -150 0
393 -399 0
398 -399 0
-393 -398 399 0
205 -400 0
48 -400 0
-205 -48 400 0
-399 397 0
-400 397 0
399 400 -397 0
49 206 -402 0
-49 206 402 0
49 -206 402 0
-49 -206 -402 0
402 397 -151 0
-402 397 151 0
402 -397 151 0
-402 -397 -151 0
397 -403 0
402 -403 0
-397 -402 403 0
206 -404 0
49 -404 0
-206 -49 404 0
-403 401 0
-404 401 0
403 404 -401 0
50 207 -406 0
-50 207 406 0
50 -207 406 0
-50 -207 -406 0
406 401 -152 0
-406 401 152 0
406 -401 152 0
-406 -401 -152 0
401 -407 0
406 -407 0
-401 -406 407 0
207 -408 0
50 -408 0
-207 -50 408 0
-407 405 0
-408 405 0
407 408 -405 0
51 208 -410 0
-51 208 410 0
51 -208 410 0
-51 -208 -410 0
410 405 -153 0
-410 405 153 0
410 -405 153 0
-410 -405 -153 0
405 -411 0
410 -411 0
-405 -410 411 0
208 -412 0
51 -412 0
-208 -51 412 0
-411 409 0
-412 409 0
411 412 -409 0
409 155 -154 0
-409 155 154 0
409 -155 154 0
-409 -155 -154 0
